clingo version 5.4.0
Reading from datasets/iprg/iprg_pos_v2.lp ...
Solving...
Answer: 1
alphabet_size(21) avg_sequences_length("11.951205377839592") density("0.6167240656114091") max_len_sequences(12) n_sequences(8628) name(iprg_pos_neg) tot_symbols(111743)
SATISFIABLE

Models       : 1
Calls        : 1
Time         : 1.949s (Solving: 0.00s 1st Model: 0.00s Unsat: 0.00s)
CPU Time     : 1.773s
